NAME PortOpt_n20_m8_inst_2
ROWS
 N  OBJ
 E  budget  
 L  return  
 L  uncertain_risk
 L  fixed_risk
COLUMNS
    asset[0]  budget    1
    asset[0]  return    -1.6748339655578337e+00
    asset[1]  budget    1
    asset[1]  return    -1.6651782861013820e+00
    asset[2]  budget    1
    asset[2]  return    -2.9154665670853728e+00
    asset[3]  budget    1
    asset[3]  return    -3.3768527215619253e+00
    asset[4]  budget    1
    asset[4]  return    -2.3662653068490624e+00
    asset[5]  budget    1
    asset[5]  return    -1.0587078857359202e+00
    asset[6]  budget    1
    asset[6]  return    -3.2147927267819796e+00
    asset[7]  budget    1
    asset[7]  return    -4.9780386601481039e+00
    asset[8]  budget    1
    asset[8]  return    -3.4156772621314908e+00
    asset[9]  budget    1
    asset[9]  return    -3.5108711230353014e+00
    asset[10]  budget    1
    asset[10]  return    -3.2080320627508572e+00
    asset[11]  budget    1
    asset[11]  return    -1.1010156577853616e+00
    asset[12]  budget    1
    asset[12]  return    -3.0894137806430653e+00
    asset[13]  budget    1
    asset[13]  return    -3.9421652002494771e+00
    asset[14]  budget    1
    asset[14]  return    -1.1232090217383479e+00
    asset[15]  budget    1
    asset[15]  return    -3.8962413866450767e+00
    asset[16]  budget    1
    asset[16]  return    -4.1420026774890584e+00
    asset[17]  budget    1
    asset[17]  return    -1.4844273480890227e+00
    asset[18]  budget    1
    asset[18]  return    -3.3805421287982296e+00
    asset[19]  budget    1
    asset[19]  return    -2.3864770367682100e+00
    return_var  OBJ       -1
    return_var  return    1
    uncertain_risk_var  OBJ       1
    uncertain_risk_var  uncertain_risk  -1
    fixed_risk_var  OBJ       1
    fixed_risk_var  fixed_risk  -1
RHS
    RHS1      budget    1
BOUNDS
 FR BND1      asset[0]
 FR BND1      asset[1]
 FR BND1      asset[2]
 FR BND1      asset[3]
 FR BND1      asset[4]
 FR BND1      asset[5]
 FR BND1      asset[6]
 FR BND1      asset[7]
 FR BND1      asset[8]
 FR BND1      asset[9]
 FR BND1      asset[10]
 FR BND1      asset[11]
 FR BND1      asset[12]
 FR BND1      asset[13]
 FR BND1      asset[14]
 FR BND1      asset[15]
 FR BND1      asset[16]
 FR BND1      asset[17]
 FR BND1      asset[18]
 FR BND1      asset[19]
 FR BND1      return_var
 FR BND1      uncertain_risk_var
 FR BND1      fixed_risk_var
QCMATRIX   uncertain_risk
    asset[0]  asset[0]  3.7481528502257715e-02
    asset[0]  asset[1]  1.0131100313775693e-02
    asset[1]  asset[0]  1.0131100313775693e-02
    asset[0]  asset[2]  -1.1414473016092433e-02
    asset[2]  asset[0]  -1.1414473016092433e-02
    asset[0]  asset[3]  -1.8816441889093059e-02
    asset[3]  asset[0]  -1.8816441889093059e-02
    asset[0]  asset[4]  2.2018396443302137e-02
    asset[4]  asset[0]  2.2018396443302137e-02
    asset[0]  asset[5]  7.4609112707081631e-03
    asset[5]  asset[0]  7.4609112707081631e-03
    asset[0]  asset[6]  -9.5841991461028514e-04
    asset[6]  asset[0]  -9.5841991461028514e-04
    asset[0]  asset[7]  -3.4158958393363005e-02
    asset[7]  asset[0]  -3.4158958393363005e-02
    asset[0]  asset[8]  -6.3548650788978797e-02
    asset[8]  asset[0]  -6.3548650788978797e-02
    asset[0]  asset[9]  2.0618321147281037e-02
    asset[9]  asset[0]  2.0618321147281037e-02
    asset[0]  asset[10]  3.1022911536107379e-03
    asset[10]  asset[0]  3.1022911536107379e-03
    asset[0]  asset[11]  2.9362897601336216e-02
    asset[11]  asset[0]  2.9362897601336216e-02
    asset[0]  asset[12]  9.5160750385418699e-03
    asset[12]  asset[0]  9.5160750385418699e-03
    asset[0]  asset[13]  1.7658034627834086e-02
    asset[13]  asset[0]  1.7658034627834086e-02
    asset[0]  asset[14]  -2.4291990759565896e-02
    asset[14]  asset[0]  -2.4291990759565896e-02
    asset[0]  asset[15]  2.2255566286827028e-02
    asset[15]  asset[0]  2.2255566286827028e-02
    asset[0]  asset[16]  -2.4867181595112108e-02
    asset[16]  asset[0]  -2.4867181595112108e-02
    asset[0]  asset[17]  -4.2484155183268243e-02
    asset[17]  asset[0]  -4.2484155183268243e-02
    asset[0]  asset[18]  1.0648170223376593e-02
    asset[18]  asset[0]  1.0648170223376593e-02
    asset[0]  asset[19]  -1.1665927415652814e-02
    asset[19]  asset[0]  -1.1665927415652814e-02
    asset[1]  asset[1]  2.6344499496814652e-02
    asset[1]  asset[2]  1.0666432862659114e-02
    asset[2]  asset[1]  1.0666432862659114e-02
    asset[1]  asset[3]  -2.3823161519000248e-02
    asset[3]  asset[1]  -2.3823161519000248e-02
    asset[1]  asset[4]  1.3992948692116723e-02
    asset[4]  asset[1]  1.3992948692116723e-02
    asset[1]  asset[5]  8.5577568304853330e-03
    asset[5]  asset[1]  8.5577568304853330e-03
    asset[1]  asset[6]  -4.8825697024739521e-03
    asset[6]  asset[1]  -4.8825697024739521e-03
    asset[1]  asset[7]  2.7493673825167613e-03
    asset[7]  asset[1]  2.7493673825167613e-03
    asset[1]  asset[8]  -7.2036877896028174e-03
    asset[8]  asset[1]  -7.2036877896028174e-03
    asset[1]  asset[9]  5.4538280046859556e-03
    asset[9]  asset[1]  5.4538280046859556e-03
    asset[1]  asset[10]  2.5382677308607188e-02
    asset[10]  asset[1]  2.5382677308607188e-02
    asset[1]  asset[11]  2.2600576669440819e-02
    asset[11]  asset[1]  2.2600576669440819e-02
    asset[1]  asset[12]  6.8914784695693673e-03
    asset[12]  asset[1]  6.8914784695693673e-03
    asset[1]  asset[13]  -7.6228261649448755e-03
    asset[13]  asset[1]  -7.6228261649448755e-03
    asset[1]  asset[14]  -1.3889883983880944e-02
    asset[14]  asset[1]  -1.3889883983880944e-02
    asset[1]  asset[15]  -1.2737178576306411e-02
    asset[15]  asset[1]  -1.2737178576306411e-02
    asset[1]  asset[16]  -3.9430931021123914e-03
    asset[16]  asset[1]  -3.9430931021123914e-03
    asset[1]  asset[17]  9.3575872823130762e-03
    asset[17]  asset[1]  9.3575872823130762e-03
    asset[1]  asset[18]  -1.3598145540570004e-02
    asset[18]  asset[1]  -1.3598145540570004e-02
    asset[1]  asset[19]  1.2052742554979403e-02
    asset[19]  asset[1]  1.2052742554979403e-02
    asset[2]  asset[2]  2.0404811937882170e-02
    asset[2]  asset[3]  1.0273855234688248e-02
    asset[3]  asset[2]  1.0273855234688248e-02
    asset[2]  asset[4]  -5.8438101823330632e-03
    asset[4]  asset[2]  -5.8438101823330632e-03
    asset[2]  asset[5]  3.2472240895564846e-03
    asset[5]  asset[2]  3.2472240895564846e-03
    asset[2]  asset[6]  -1.4813176114877129e-03
    asset[6]  asset[2]  -1.4813176114877129e-03
    asset[2]  asset[7]  9.1455101142900314e-03
    asset[7]  asset[2]  9.1455101142900314e-03
    asset[2]  asset[8]  2.1035171111506268e-02
    asset[8]  asset[2]  2.1035171111506268e-02
    asset[2]  asset[9]  2.8949744767549959e-04
    asset[9]  asset[2]  2.8949744767549959e-04
    asset[2]  asset[10]  1.5468460895272467e-02
    asset[10]  asset[2]  1.5468460895272467e-02
    asset[2]  asset[11]  -2.2285418337374919e-03
    asset[11]  asset[2]  -2.2285418337374919e-03
    asset[2]  asset[12]  1.1921628487385302e-02
    asset[12]  asset[2]  1.1921628487385302e-02
    asset[2]  asset[13]  -1.6678747403860147e-02
    asset[13]  asset[2]  -1.6678747403860147e-02
    asset[2]  asset[14]  6.4154874559778970e-03
    asset[14]  asset[2]  6.4154874559778970e-03
    asset[2]  asset[15]  -2.3484720185149133e-02
    asset[15]  asset[2]  -2.3484720185149133e-02
    asset[2]  asset[16]  -3.7337846491755713e-03
    asset[16]  asset[2]  -3.7337846491755713e-03
    asset[2]  asset[17]  2.4700069988154848e-02
    asset[17]  asset[2]  2.4700069988154848e-02
    asset[2]  asset[18]  -1.4459113381487721e-02
    asset[18]  asset[2]  -1.4459113381487721e-02
    asset[2]  asset[19]  1.1054196614219618e-02
    asset[19]  asset[2]  1.1054196614219618e-02
    asset[3]  asset[3]  1.3215741957802654e-01
    asset[3]  asset[4]  -3.4765913322914774e-02
    asset[4]  asset[3]  -3.4765913322914774e-02
    asset[3]  asset[5]  -2.0398381506250458e-03
    asset[5]  asset[3]  -2.0398381506250458e-03
    asset[3]  asset[6]  3.4835192128809700e-02
    asset[6]  asset[3]  3.4835192128809700e-02
    asset[3]  asset[7]  3.7505949431093462e-03
    asset[7]  asset[3]  3.7505949431093462e-03
    asset[3]  asset[8]  5.6631260686212666e-02
    asset[8]  asset[3]  5.6631260686212666e-02
    asset[3]  asset[9]  -2.5451998801469693e-02
    asset[9]  asset[3]  -2.5451998801469693e-02
    asset[3]  asset[10]  -4.1333529524300389e-02
    asset[10]  asset[3]  -4.1333529524300389e-02
    asset[3]  asset[11]  -5.6752880934986802e-02
    asset[11]  asset[3]  -5.6752880934986802e-02
    asset[3]  asset[12]  2.2808611912567382e-02
    asset[12]  asset[3]  2.2808611912567382e-02
    asset[3]  asset[13]  4.7109708304521256e-03
    asset[13]  asset[3]  4.7109708304521256e-03
    asset[3]  asset[14]  3.9033924612606588e-02
    asset[14]  asset[3]  3.9033924612606588e-02
    asset[3]  asset[15]  1.0748118958349585e-02
    asset[15]  asset[3]  1.0748118958349585e-02
    asset[3]  asset[16]  -5.6606812793562021e-03
    asset[16]  asset[3]  -5.6606812793562021e-03
    asset[3]  asset[17]  -4.4107970490119865e-03
    asset[17]  asset[3]  -4.4107970490119865e-03
    asset[3]  asset[18]  -1.4475426469296809e-02
    asset[18]  asset[3]  -1.4475426469296809e-02
    asset[3]  asset[19]  1.0109003279693832e-02
    asset[19]  asset[3]  1.0109003279693832e-02
    asset[4]  asset[4]  2.7781504856773890e-02
    asset[4]  asset[5]  6.4168005249125859e-03
    asset[5]  asset[4]  6.4168005249125859e-03
    asset[4]  asset[6]  -5.6338966200017871e-03
    asset[6]  asset[4]  -5.6338966200017871e-03
    asset[4]  asset[7]  -8.5011770086020292e-03
    asset[7]  asset[4]  -8.5011770086020292e-03
    asset[4]  asset[8]  -2.6604794510711200e-02
    asset[8]  asset[4]  -2.6604794510711200e-02
    asset[4]  asset[9]  1.6304179411498251e-02
    asset[9]  asset[4]  1.6304179411498251e-02
    asset[4]  asset[10]  1.7892586654197788e-02
    asset[10]  asset[4]  1.7892586654197788e-02
    asset[4]  asset[11]  2.1656731716147883e-02
    asset[11]  asset[4]  2.1656731716147883e-02
    asset[4]  asset[12]  4.3823643881040339e-03
    asset[12]  asset[4]  4.3823643881040339e-03
    asset[4]  asset[13]  1.0975648999872162e-02
    asset[13]  asset[4]  1.0975648999872162e-02
    asset[4]  asset[14]  -2.6426993162081407e-02
    asset[14]  asset[4]  -2.6426993162081407e-02
    asset[4]  asset[15]  1.1958551761058495e-02
    asset[15]  asset[4]  1.1958551761058495e-02
    asset[4]  asset[16]  -4.5573680979487394e-03
    asset[16]  asset[4]  -4.5573680979487394e-03
    asset[4]  asset[17]  -1.2433403247525322e-02
    asset[17]  asset[4]  -1.2433403247525322e-02
    asset[4]  asset[18]  5.0966458383753968e-04
    asset[18]  asset[4]  5.0966458383753968e-04
    asset[4]  asset[19]  -4.6051169276394707e-03
    asset[19]  asset[4]  -4.6051169276394707e-03
    asset[5]  asset[5]  5.5337671568365544e-03
    asset[5]  asset[6]  -8.6428114655033193e-04
    asset[6]  asset[5]  -8.6428114655033193e-04
    asset[5]  asset[7]  -4.7771523868744160e-03
    asset[7]  asset[5]  -4.7771523868744160e-03
    asset[5]  asset[8]  -1.0419180027741011e-02
    asset[8]  asset[5]  -1.0419180027741011e-02
    asset[5]  asset[9]  5.0411053737515164e-03
    asset[9]  asset[5]  5.0411053737515164e-03
    asset[5]  asset[10]  4.7555065605841100e-03
    asset[10]  asset[5]  4.7555065605841100e-03
    asset[5]  asset[11]  7.3700614659636624e-03
    asset[11]  asset[5]  7.3700614659636624e-03
    asset[5]  asset[12]  2.0554827679601616e-03
    asset[12]  asset[5]  2.0554827679601616e-03
    asset[5]  asset[13]  -8.2819498458522865e-05
    asset[13]  asset[5]  -8.2819498458522865e-05
    asset[5]  asset[14]  -3.2233640344504762e-03
    asset[14]  asset[5]  -3.2233640344504762e-03
    asset[5]  asset[15]  2.0903952123008892e-03
    asset[15]  asset[5]  2.0903952123008892e-03
    asset[5]  asset[16]  -5.4653978029210251e-03
    asset[16]  asset[5]  -5.4653978029210251e-03
    asset[5]  asset[17]  -4.7698870859028668e-03
    asset[17]  asset[5]  -4.7698870859028668e-03
    asset[5]  asset[18]  -6.5487886061776964e-03
    asset[18]  asset[5]  -6.5487886061776964e-03
    asset[5]  asset[19]  1.8049969055821287e-03
    asset[19]  asset[5]  1.8049969055821287e-03
    asset[6]  asset[6]  2.2514456829908328e-02
    asset[6]  asset[7]  -1.8093946257229981e-03
    asset[7]  asset[6]  -1.8093946257229981e-03
    asset[6]  asset[8]  2.1835458716279156e-02
    asset[8]  asset[6]  2.1835458716279156e-02
    asset[6]  asset[9]  -1.3198196297866149e-02
    asset[9]  asset[6]  -1.3198196297866149e-02
    asset[6]  asset[10]  -7.0986858220235798e-03
    asset[10]  asset[6]  -7.0986858220235798e-03
    asset[6]  asset[11]  -6.5623175131007752e-03
    asset[11]  asset[6]  -6.5623175131007752e-03
    asset[6]  asset[12]  1.4862827036631200e-02
    asset[12]  asset[6]  1.4862827036631200e-02
    asset[6]  asset[13]  3.6296385197383601e-03
    asset[13]  asset[6]  3.6296385197383601e-03
    asset[6]  asset[14]  2.2646930211743140e-03
    asset[14]  asset[6]  2.2646930211743140e-03
    asset[6]  asset[15]  3.5075383328662529e-03
    asset[15]  asset[6]  3.5075383328662529e-03
    asset[6]  asset[16]  -4.1854479682023908e-03
    asset[16]  asset[6]  -4.1854479682023908e-03
    asset[6]  asset[17]  -2.8316155378132436e-03
    asset[17]  asset[6]  -2.8316155378132436e-03
    asset[6]  asset[18]  1.3833136006152764e-03
    asset[18]  asset[6]  1.3833136006152764e-03
    asset[6]  asset[19]  5.3743949191268356e-03
    asset[19]  asset[6]  5.3743949191268356e-03
    asset[7]  asset[7]  5.4955759279546920e-02
    asset[7]  asset[8]  7.9465909195758549e-02
    asset[8]  asset[7]  7.9465909195758549e-02
    asset[7]  asset[9]  -2.4189584149247795e-02
    asset[9]  asset[7]  -2.4189584149247795e-02
    asset[7]  asset[10]  9.0382530493572852e-03
    asset[10]  asset[7]  9.0382530493572852e-03
    asset[7]  asset[11]  -2.5980276885936342e-02
    asset[11]  asset[7]  -2.5980276885936342e-02
    asset[7]  asset[12]  -1.2968458443732317e-02
    asset[12]  asset[7]  -1.2968458443732317e-02
    asset[7]  asset[13]  -1.5354986669024871e-02
    asset[13]  asset[7]  -1.5354986669024871e-02
    asset[7]  asset[14]  1.1519706817317040e-02
    asset[14]  asset[7]  1.1519706817317040e-02
    asset[7]  asset[15]  -1.9508293318046467e-02
    asset[15]  asset[7]  -1.9508293318046467e-02
    asset[7]  asset[16]  4.1704120097961886e-02
    asset[16]  asset[7]  4.1704120097961886e-02
    asset[7]  asset[17]  5.1974879239246513e-02
    asset[17]  asset[7]  5.1974879239246513e-02
    asset[7]  asset[18]  -2.4137279836496585e-02
    asset[18]  asset[7]  -2.4137279836496585e-02
    asset[7]  asset[19]  2.1525968248044640e-02
    asset[19]  asset[7]  2.1525968248044640e-02
    asset[8]  asset[8]  1.5566762073693491e-01
    asset[8]  asset[9]  -4.9484526259247458e-02
    asset[9]  asset[8]  -4.9484526259247458e-02
    asset[8]  asset[10]  6.5239604005805137e-03
    asset[10]  asset[8]  6.5239604005805137e-03
    asset[8]  asset[11]  -5.7195167884371040e-02
    asset[11]  asset[8]  -5.7195167884371040e-02
    asset[8]  asset[12]  2.8547489340358459e-03
    asset[12]  asset[8]  2.8547489340358459e-03
    asset[8]  asset[13]  -2.4201563184729998e-02
    asset[13]  asset[8]  -2.4201563184729998e-02
    asset[8]  asset[14]  2.8476726742914224e-02
    asset[14]  asset[8]  2.8476726742914224e-02
    asset[8]  asset[15]  -3.5530453432806405e-02
    asset[15]  asset[8]  -3.5530453432806405e-02
    asset[8]  asset[16]  5.4380011047665863e-02
    asset[16]  asset[8]  5.4380011047665863e-02
    asset[8]  asset[17]  8.6690116275323748e-02
    asset[17]  asset[8]  8.6690116275323748e-02
    asset[8]  asset[18]  -3.2536367114560871e-02
    asset[18]  asset[8]  -3.2536367114560871e-02
    asset[8]  asset[19]  3.6659126789397783e-02
    asset[19]  asset[8]  3.6659126789397783e-02
    asset[9]  asset[9]  2.8258490452143164e-02
    asset[9]  asset[10]  1.1221857023537233e-02
    asset[10]  asset[9]  1.1221857023537233e-02
    asset[9]  asset[11]  1.9257133716338429e-02
    asset[11]  asset[9]  1.9257133716338429e-02
    asset[9]  asset[12]  8.8703357301023605e-03
    asset[12]  asset[9]  8.8703357301023605e-03
    asset[9]  asset[13]  5.1423960974846892e-03
    asset[13]  asset[9]  5.1423960974846892e-03
    asset[9]  asset[14]  -1.6655634769190710e-02
    asset[14]  asset[9]  -1.6655634769190710e-02
    asset[9]  asset[15]  6.5835250918483967e-03
    asset[15]  asset[9]  6.5835250918483967e-03
    asset[9]  asset[16]  -2.1579183705996728e-02
    asset[16]  asset[9]  -2.1579183705996728e-02
    asset[9]  asset[17]  -2.0495909902384792e-02
    asset[17]  asset[9]  -2.0495909902384792e-02
    asset[9]  asset[18]  6.6968533157230649e-03
    asset[18]  asset[9]  6.6968533157230649e-03
    asset[9]  asset[19]  -1.4631682806913571e-02
    asset[19]  asset[9]  -1.4631682806913571e-02
    asset[10]  asset[10]  4.2943408150849544e-02
    asset[10]  asset[11]  2.5965923517450633e-02
    asset[11]  asset[10]  2.5965923517450633e-02
    asset[10]  asset[12]  1.8709956148467134e-02
    asset[12]  asset[10]  1.8709956148467134e-02
    asset[10]  asset[13]  -1.4038320181183166e-02
    asset[13]  asset[10]  -1.4038320181183166e-02
    asset[10]  asset[14]  -2.3943558816161128e-02
    asset[14]  asset[10]  -2.3943558816161128e-02
    asset[10]  asset[15]  -2.6779886846655852e-02
    asset[15]  asset[10]  -2.6779886846655852e-02
    asset[10]  asset[16]  -4.0639676955602118e-03
    asset[16]  asset[10]  -4.0639676955602118e-03
    asset[10]  asset[17]  2.7226857104772642e-02
    asset[17]  asset[10]  2.7226857104772642e-02
    asset[10]  asset[18]  -8.5502215061466699e-03
    asset[18]  asset[10]  -8.5502215061466699e-03
    asset[10]  asset[19]  9.9333329952847049e-03
    asset[19]  asset[10]  9.9333329952847049e-03
    asset[11]  asset[11]  4.9692239537784892e-02
    asset[11]  asset[12]  9.2285371900797109e-03
    asset[12]  asset[11]  9.2285371900797109e-03
    asset[11]  asset[13]  -1.2850084849950799e-03
    asset[13]  asset[11]  -1.2850084849950799e-03
    asset[11]  asset[14]  -2.9181469184445544e-02
    asset[14]  asset[11]  -2.9181469184445544e-02
    asset[11]  asset[15]  -4.7797675043220154e-03
    asset[15]  asset[11]  -4.7797675043220154e-03
    asset[11]  asset[16]  -2.3487714153440746e-02
    asset[16]  asset[11]  -2.3487714153440746e-02
    asset[11]  asset[17]  -1.8074643034662208e-02
    asset[17]  asset[11]  -1.8074643034662208e-02
    asset[11]  asset[18]  9.5358411110303982e-03
    asset[18]  asset[11]  9.5358411110303982e-03
    asset[11]  asset[19]  -4.1028258412104390e-03
    asset[19]  asset[11]  -4.1028258412104390e-03
    asset[12]  asset[12]  4.2493063752388135e-02
    asset[12]  asset[13]  -2.2995722779766787e-03
    asset[13]  asset[12]  -2.2995722779766787e-03
    asset[12]  asset[14]  -1.5600855347732066e-02
    asset[14]  asset[12]  -1.5600855347732066e-02
    asset[12]  asset[15]  -1.1724380355535923e-02
    asset[15]  asset[12]  -1.1724380355535923e-02
    asset[12]  asset[16]  -2.5979244084762605e-02
    asset[16]  asset[12]  -2.5979244084762605e-02
    asset[12]  asset[17]  4.3795572586924488e-04
    asset[17]  asset[12]  4.3795572586924488e-04
    asset[12]  asset[18]  1.8037871857455282e-03
    asset[18]  asset[12]  1.8037871857455282e-03
    asset[12]  asset[19]  2.4969321630910054e-03
    asset[19]  asset[12]  2.4969321630910054e-03
    asset[13]  asset[13]  2.2247655449643012e-02
    asset[13]  asset[14]  -9.1436105176397504e-03
    asset[14]  asset[13]  -9.1436105176397504e-03
    asset[13]  asset[15]  2.8236557145920792e-02
    asset[15]  asset[13]  2.8236557145920792e-02
    asset[13]  asset[16]  -3.1499066705781087e-03
    asset[16]  asset[13]  -3.1499066705781087e-03
    asset[13]  asset[17]  -2.9969507051814420e-02
    asset[17]  asset[13]  -2.9969507051814420e-02
    asset[13]  asset[18]  1.1334294618153946e-02
    asset[18]  asset[13]  1.1334294618153946e-02
    asset[13]  asset[19]  -1.1177175142011896e-02
    asset[19]  asset[13]  -1.1177175142011896e-02
    asset[14]  asset[14]  3.3979572889505316e-02
    asset[14]  asset[15]  -4.8049255119782825e-03
    asset[15]  asset[14]  -4.8049255119782825e-03
    asset[14]  asset[16]  1.0861076257056599e-02
    asset[16]  asset[14]  1.0861076257056599e-02
    asset[14]  asset[17]  1.1812117429871469e-02
    asset[17]  asset[14]  1.1812117429871469e-02
    asset[14]  asset[18]  -8.1883476312395245e-03
    asset[18]  asset[14]  -8.1883476312395245e-03
    asset[14]  asset[19]  4.9352550904790283e-03
    asset[19]  asset[14]  4.9352550904790283e-03
    asset[15]  asset[15]  4.3814189627569812e-02
    asset[15]  asset[16]  -2.2133116748678551e-03
    asset[16]  asset[15]  -2.2133116748678551e-03
    asset[15]  asset[17]  -4.4994357089544183e-02
    asset[17]  asset[15]  -4.4994357089544183e-02
    asset[15]  asset[18]  9.3269559117422005e-03
    asset[18]  asset[15]  9.3269559117422005e-03
    asset[15]  asset[19]  -1.6227060179515165e-02
    asset[19]  asset[15]  -1.6227060179515165e-02
    asset[16]  asset[16]  4.1150831672811715e-02
    asset[16]  asset[17]  3.1282990887410572e-02
    asset[17]  asset[16]  3.1282990887410572e-02
    asset[16]  asset[18]  -1.2801536630028913e-02
    asset[18]  asset[16]  -1.2801536630028913e-02
    asset[16]  asset[19]  1.1745693316238591e-02
    asset[19]  asset[16]  1.1745693316238591e-02
    asset[17]  asset[17]  7.2387276618634686e-02
    asset[17]  asset[18]  -2.2608645563236950e-02
    asset[18]  asset[17]  -2.2608645563236950e-02
    asset[17]  asset[19]  2.5276479947974391e-02
    asset[19]  asset[17]  2.5276479947974391e-02
    asset[18]  asset[18]  2.8259309397687615e-02
    asset[18]  asset[19]  -1.6571317271880697e-02
    asset[19]  asset[18]  -1.6571317271880697e-02
    asset[19]  asset[19]  1.8449033717716432e-02
QCMATRIX   fixed_risk
    asset[0]  asset[0]  3.4204772958763003e-03
    asset[1]  asset[1]  2.2931948000727903e-03
    asset[2]  asset[2]  1.9101660725083297e-03
    asset[3]  asset[3]  1.1831290964327827e-02
    asset[4]  asset[4]  2.9289018817658052e-03
    asset[5]  asset[5]  5.1622351823588986e-04
    asset[6]  asset[6]  2.0725120764720443e-03
    asset[7]  asset[7]  5.3673074552418347e-03
    asset[8]  asset[8]  1.4764860733992064e-02
    asset[9]  asset[9]  2.5531190089274612e-03
    asset[10]  asset[10]  4.3191388937055151e-03
    asset[11]  asset[11]  5.3209713698046512e-03
    asset[12]  asset[12]  4.0700899329891762e-03
    asset[13]  asset[13]  2.3166447551834393e-03
    asset[14]  asset[14]  3.2102302390746074e-03
    asset[15]  asset[15]  3.9517532798245955e-03
    asset[16]  asset[16]  4.1634663262921229e-03
    asset[17]  asset[17]  6.9291573368149345e-03
    asset[18]  asset[18]  3.0171499385742194e-03
    asset[19]  asset[19]  1.7818640504785822e-03
ENDATA
